p cnf 216 78
17 0
-18 -34 -1 0
18 34 -1 0
18 -34 1 0
-18 34 1 0
-19 -35 -2 0
19 35 -2 0
19 -35 2 0
-19 35 2 0
-20 -36 -3 0
20 36 -3 0
20 -36 3 0
-20 36 3 0
-21 -37 -4 0
21 37 -4 0
21 -37 4 0
-21 37 4 0
-22 -38 -5 0
22 38 -5 0
22 -38 5 0
-22 38 5 0
-23 -39 -6 0
23 39 -6 0
23 -39 6 0
-23 39 6 0
-24 -40 -7 0
24 40 -7 0
24 -40 7 0
-24 40 7 0
-25 -41 -8 0
25 41 -8 0
25 -41 8 0
-25 41 8 0
-26 -42 -9 0
26 42 -9 0
26 -42 9 0
-26 42 9 0
-27 -43 -10 0
27 43 -10 0
27 -43 10 0
-27 43 10 0
-28 -44 -11 0
28 44 -11 0
28 -44 11 0
-28 44 11 0
-29 -45 -12 0
29 45 -12 0
29 -45 12 0
-29 45 12 0
-30 -46 -13 0
30 46 -13 0
30 -46 13 0
-30 46 13 0
-31 -47 -14 0
31 47 -14 0
31 -47 14 0
-31 47 14 0
-32 -48 -15 0
32 48 -15 0
32 -48 15 0
-32 48 15 0
-33 -49 -16 0
33 49 -16 0
33 -49 16 0
-33 49 16 0
-210 -212 -214 0
210 212 -214 0
-210 212 214 0
210 -212 214 0
-211 -213 -215 0
211 213 -215 0
-211 213 215 0
211 -213 215 0
-214 -216 0
-215 -216 0
214 215 216 0
-17 216 0
17 -216 0
c __CPROVER_malloc_is_new_array#1 FALSE
c main::1::x!0@1#1 82 83 84 85 86 87 88 89 90 91 92 93 94 95 96 97 98 99 100 101 102 103 104 105 106 107 108 109 110 111 112 113
c main::1::o!0@1#2 1 2 3 4 5 6 7 8 9 10 11 12 13 14 15 16 1 2 3 4 5 6 7 8 9 10 11 12 13 14 15 16
c main::1::y!0@1#2 1 2 3 4 5 6 7 8 9 10 11 12 13 14 15 16 FALSE FALSE FALSE FALSE FALSE FALSE FALSE FALSE FALSE FALSE FALSE FALSE FALSE FALSE FALSE FALSE
c main::$tmp::return_value_nondet_uint$1!0@1#1 114 115 116 117 118 119 120 121 122 123 124 125 126 127 128 129 130 131 132 133 134 135 136 137 138 139 140 141 142 143 144 145
c __CPROVER_malloc_object#1 FALSE FALSE FALSE FALSE FALSE FALSE FALSE FALSE FALSE FALSE FALSE FALSE FALSE FALSE FALSE FALSE FALSE FALSE FALSE FALSE FALSE FALSE FALSE FALSE FALSE FALSE FALSE FALSE FALSE FALSE FALSE FALSE
c main::1::__return_value!0@1#1 50 51 52 53 54 55 56 57 58 59 60 61 62 63 64 65 66 67 68 69 70 71 72 73 74 75 76 77 78 79 80 81
c __CPROVER_deallocated#1 FALSE FALSE FALSE FALSE FALSE FALSE FALSE FALSE FALSE FALSE FALSE FALSE FALSE FALSE FALSE FALSE FALSE FALSE FALSE FALSE FALSE FALSE FALSE FALSE FALSE FALSE FALSE FALSE FALSE FALSE FALSE FALSE
c __CPROVER_dead_object#1 FALSE FALSE FALSE FALSE FALSE FALSE FALSE FALSE FALSE FALSE FALSE FALSE FALSE FALSE FALSE FALSE FALSE FALSE FALSE FALSE FALSE FALSE FALSE FALSE FALSE FALSE FALSE FALSE FALSE FALSE FALSE FALSE
c main::$tmp::return_value_nondet_uint$1!0@1#2 18 19 20 21 22 23 24 25 26 27 28 29 30 31 32 33 34 35 36 37 38 39 40 41 42 43 44 45 46 47 48 49
c __CPROVER_memory_leak#1 FALSE FALSE FALSE FALSE FALSE FALSE FALSE FALSE FALSE FALSE FALSE FALSE FALSE FALSE FALSE FALSE FALSE FALSE FALSE FALSE FALSE FALSE FALSE FALSE FALSE FALSE FALSE FALSE FALSE FALSE FALSE FALSE
c __CPROVER_malloc_size#1 FALSE FALSE FALSE FALSE FALSE FALSE FALSE FALSE FALSE FALSE FALSE FALSE FALSE FALSE FALSE FALSE FALSE FALSE FALSE FALSE FALSE FALSE FALSE FALSE FALSE FALSE FALSE FALSE FALSE FALSE FALSE FALSE
c symex::nondet0 18 19 20 21 22 23 24 25 26 27 28 29 30 31 32 33 34 35 36 37 38 39 40 41 42 43 44 45 46 47 48 49
c main::1::x!0@1#2 18 19 20 21 22 23 24 25 26 27 28 29 30 31 32 33 34 35 36 37 38 39 40 41 42 43 44 45 46 47 48 49
c __CPROVER_next_thread_id#1 FALSE FALSE FALSE FALSE FALSE FALSE FALSE FALSE FALSE FALSE FALSE FALSE FALSE FALSE FALSE FALSE FALSE FALSE FALSE FALSE FALSE FALSE FALSE FALSE FALSE FALSE FALSE FALSE FALSE FALSE FALSE FALSE
c main::1::y!0@1#1 146 147 148 149 150 151 152 153 154 155 156 157 158 159 160 161 162 163 164 165 166 167 168 169 170 171 172 173 174 175 176 177
c __CPROVER_pipe_count#1 FALSE FALSE FALSE FALSE FALSE FALSE FALSE FALSE FALSE FALSE FALSE FALSE FALSE FALSE FALSE FALSE FALSE FALSE FALSE FALSE FALSE FALSE FALSE FALSE FALSE FALSE FALSE FALSE FALSE FALSE FALSE FALSE
c main::1::o!0@1#1 178 179 180 181 182 183 184 185 186 187 188 189 190 191 192 193 194 195 196 197 198 199 200 201 202 203 204 205 206 207 208 209
c __CPROVER_rounding_mode!0#1 FALSE FALSE FALSE FALSE FALSE FALSE FALSE FALSE FALSE FALSE FALSE FALSE FALSE FALSE FALSE FALSE FALSE FALSE FALSE FALSE FALSE FALSE FALSE FALSE FALSE FALSE FALSE FALSE FALSE FALSE FALSE FALSE
c main::1::__return_value!0@1#2 1 2 3 4 5 6 7 8 9 10 11 12 13 14 15 16 1 2 3 4 5 6 7 8 9 10 11 12 13 14 15 16
c __CPROVER_thread_id!0#1 FALSE FALSE FALSE FALSE FALSE FALSE FALSE FALSE FALSE FALSE FALSE FALSE FALSE FALSE FALSE FALSE FALSE FALSE FALSE FALSE FALSE FALSE FALSE FALSE FALSE FALSE FALSE FALSE FALSE FALSE FALSE FALSE
c ind 1 2 3 4 5 6 7 8 9 10 0
c ind 11 12 13 14 15 16 0
cr 1 2 3 4 5 6 7 8 9 10 11 12 13 14 15 16
